certificates/rado_a9_c264_N30.cnf
c Rad2 upper bound instance: x1 + 9*x2 - x3 = 264, interval [1,30]
p cnf 30 156
1 7 30 0
-1 -7 -30 0
2 8 30 0
-2 -8 -30 0
3 9 30 0
-3 -9 -30 0
1 4 29 0
-1 -4 -29 0
4 10 30 0
-4 -10 -30 0
2 5 29 0
-2 -5 -29 0
5 11 30 0
-5 -11 -30 0
3 6 29 0
-3 -6 -29 0
6 12 30 0
-6 -12 -30 0
4 7 29 0
-4 -7 -29 0
7 13 30 0
-7 -13 -30 0
5 8 29 0
-5 -8 -29 0
8 14 30 0
-8 -14 -30 0
6 9 29 0
-6 -9 -29 0
9 15 30 0
-9 -15 -30 0
7 10 29 0
-7 -10 -29 0
10 16 30 0
-10 -16 -30 0
8 11 29 0
-8 -11 -29 0
11 17 30 0
-11 -17 -30 0
9 12 29 0
-9 -12 -29 0
12 18 30 0
-12 -18 -30 0
1 13 28 0
-1 -13 -28 0
10 13 29 0
-10 -13 -29 0
13 19 30 0
-13 -19 -30 0
2 14 28 0
-2 -14 -28 0
11 14 29 0
-11 -14 -29 0
14 20 30 0
-14 -20 -30 0
3 15 28 0
-3 -15 -28 0
12 15 29 0
-12 -15 -29 0
15 21 30 0
-15 -21 -30 0
4 16 28 0
-4 -16 -28 0
13 16 29 0
-13 -16 -29 0
16 22 30 0
-16 -22 -30 0
5 17 28 0
-5 -17 -28 0
14 17 29 0
-14 -17 -29 0
17 23 30 0
-17 -23 -30 0
6 18 28 0
-6 -18 -28 0
15 18 29 0
-15 -18 -29 0
18 24 30 0
-18 -24 -30 0
7 19 28 0
-7 -19 -28 0
16 19 29 0
-16 -19 -29 0
19 25 30 0
-19 -25 -30 0
8 20 28 0
-8 -20 -28 0
17 20 29 0
-17 -20 -29 0
20 26 30 0
-20 -26 -30 0
9 21 28 0
-9 -21 -28 0
18 21 29 0
-18 -21 -29 0
21 27 30 0
-21 -27 -30 0
1 22 27 0
-1 -22 -27 0
10 22 28 0
-10 -22 -28 0
19 22 29 0
-19 -22 -29 0
22 28 30 0
-22 -28 -30 0
2 23 27 0
-2 -23 -27 0
11 23 28 0
-11 -23 -28 0
20 23 29 0
-20 -23 -29 0
23 29 30 0
-23 -29 -30 0
3 24 27 0
-3 -24 -27 0
12 24 28 0
-12 -24 -28 0
21 24 29 0
-21 -24 -29 0
24 30 0
-24 -30 0
4 25 27 0
-4 -25 -27 0
13 25 28 0
-13 -25 -28 0
22 25 29 0
-22 -25 -29 0
5 26 27 0
-5 -26 -27 0
14 26 28 0
-14 -26 -28 0
23 26 29 0
-23 -26 -29 0
6 27 0
-6 -27 0
15 27 28 0
-15 -27 -28 0
24 27 29 0
-24 -27 -29 0
7 27 28 0
-7 -27 -28 0
16 28 0
-16 -28 0
25 28 29 0
-25 -28 -29 0
8 27 29 0
-8 -27 -29 0
17 28 29 0
-17 -28 -29 0
26 29 0
-26 -29 0
9 27 30 0
-9 -27 -30 0
18 28 30 0
-18 -28 -30 0
27 29 30 0
-27 -29 -30 0
