certificates/rado_a9_c264_N30.drat
-29 -30 0
-30 0
24 0
29 0
-26 0
-21 0
-27 0
20 0
15 0
0
